job_count = 32 ;
duration = [|7, 8|8, 9|12, 1|4, 5|11, 4|16, 1|6, 1|8, 6|6, 3|2, 4|2, 2|13, 1|17, 8|13, 8|9, 6|4, 8|8, 2|16, 7|2, 7|16, 9|11, 3|13, 6|16, 8|11, 8|18, 1|18, 9|4, 1|8, 9|3, 5|17, 2|19, 4|19, 9|] ;
machine_count = 2 ;
cost = [|14, 38|16, 37|17, 23|18, 38|18, 34|16, 29|16, 39|14, 38|12, 28|19, 33|10, 21|10, 38|10, 39|13, 39|17, 23|16, 34|15, 27|10, 22|19, 30|19, 31|14, 35|11, 37|13, 31|18, 31|16, 21|14, 20|17, 30|10, 25|17, 36|19, 22|18, 39|13, 24|] ;
deadline = [80, 80, 80, 80, 80, 80, 80, 80, 80, 80, 80, 80, 80, 80, 80, 80, 80, 80, 80, 80, 80, 80, 80, 80, 80, 80, 80, 80, 80, 80, 80, 80] ;
release = [0, 0, 0, 0, 0, 0, 0, 0, 0, 0, 0, 0, 0, 0, 0, 0, 0, 0, 0, 0, 0, 0, 0, 0, 0, 0, 0, 0, 0, 0, 0, 0] ;
resource = [|7, 7|2, 2|8, 8|6, 6|9, 9|4, 4|6, 6|8, 8|4, 4|9, 9|3, 3|4, 4|7, 7|2, 2|4, 4|3, 3|7, 7|7, 7|6, 6|3, 3|9, 9|1, 1|4, 4|1, 1|1, 1|6, 6|4, 4|4, 4|7, 7|7, 7|9, 9|4, 4|] ;
capacities = [10, 10] ;
